200
120 120
1 84 236
2 84 810
3 84 632
4 83 960
5 83 18
6 83 765
7 83 853
8 83 441
9 83 660
10 82 469
11 82 179
12 81 465
13 81 571
14 80 185
15 79 451
16 79 484
17 78 283
18 78 251
19 78 468
20 78 915
21 77 428
22 75 241
23 75 346
24 75 847
25 75 640
26 75 655
27 75 375
28 74 89
29 74 642
30 74 512
31 74 187
32 73 715
33 73 1
34 73 783
35 73 864
36 72 138
37 72 38
38 72 792
39 71 425
40 71 577
41 71 433
42 70 412
43 70 969
44 69 349
45 69 291
46 69 819
47 69 156
48 68 4
49 68 174
50 67 485
51 67 639
52 67 48
53 65 443
54 65 795
55 65 587
56 65 632
57 65 941
58 64 592
59 64 296
60 64 564
61 63 347
62 62 167
63 61 305
64 61 907
65 60 427
66 60 81
67 59 23
68 59 595
69 58 58
70 58 400
71 58 497
72 57 216
73 57 944
74 56 812
75 55 8
76 54 188
77 54 42
78 54 721
79 53 136
80 53 165
81 52 609
82 51 514
83 50 376
84 50 583
85 50 133
86 50 341
87 49 482
88 48 441
89 48 564
90 48 156
91 48 968
92 48 968
93 48 902
94 47 237
95 46 314
96 46 801
97 46 969
98 46 736
99 46 352
100 45 517
101 45 288
102 44 872
103 43 107
104 43 730
105 43 13
106 43 425
107 43 736
108 43 262
109 43 852
110 42 229
111 41 702
112 40 774
113 40 136
114 40 739
115 40 504
116 39 72
117 39 936
118 38 454
119 38 838
120 38 195
121 38 631
122 37 538
123 37 860
124 36 647
125 36 777
126 35 73
127 35 252
128 34 324
129 34 739
130 34 10
131 34 577
132 34 691
133 34 313
134 33 495
135 33 339
136 32 346
137 32 353
138 32 831
139 31 199
140 31 323
141 31 885
142 31 772
143 30 663
144 30 335
145 30 707
146 29 344
147 29 951
148 29 713
149 28 343
150 28 781
151 28 327
152 27 483
153 27 886
154 27 858
155 27 696
156 27 143
157 27 522
158 26 796
159 26 195
160 26 15
161 26 153
162 25 923
163 25 452
164 25 45
165 25 314
166 24 93
167 24 465
168 24 733
169 24 158
170 23 403
171 23 807
172 22 665
173 22 362
174 21 256
175 20 900
176 20 431
177 19 729
178 19 521
179 19 104
180 19 687
181 18 348
182 18 759
183 18 527
184 18 421
185 17 250
186 17 523
187 16 842
188 16 513
189 16 942
190 15 990
191 14 369
192 14 280
193 14 503
194 13 234
195 13 372
196 13 488
197 12 913
198 12 293
199 12 208
200 12 47
